<number of tasks>
50

<cycle time>
1000

<order strength>
0.599


<task times>
1 301
2 262
3 349
4 250
5 50
6 281
7 310
8 97
9 122
10 512
11 474
12 371
13 317
14 169
15 224
16 299
17 23
18 166
19 319
20 248
21 300
22 182
23 79
24 241
25 222
26 376
27 505
28 110
29 189
30 147
31 118
32 110
33 91
34 356
35 178
36 97
37 492
38 177
39 197
40 239
41 144
42 342
43 493
44 490
45 274
46 518
47 162
48 92
49 209
50 72

<precedence relations>
1,6
2,7
3,8
3,9
3,10
4,8
4,9
4,10
5,8
5,9
5,10
6,12
7,13
8,11
8,12
8,14
8,15
9,12
9,13
9,14
9,15
10,12
11,16
12,18
12,19
13,33
13,48
14,17
14,19
14,20
15,19
15,20
16,22
17,21
18,23
19,24
21,25
22,26
23,27
24,28
24,29
24,36
25,31
26,31
27,31
28,30
29,41
29,48
30,32
31,32
31,33
31,34
31,35
31,36
32,37
32,38
32,40
33,39
33,40
33,41
34,50
35,40
36,48
36,49
37,42
38,43
39,44
40,45
40,46
40,49
42,48
43,49
44,47
46,50

<end>
